(set-logic ALL)
(set-option :produce-models true)
(declare-sort BoundSet 0)
(declare-sort UnboundSet 0)
(set-option :finite-model-find true)
(declare-fun IsRefuting (BoundSet BoundSet) Bool)
(declare-fun HasArguments (BoundSet BoundSet) Bool)
(declare-fun IsCounterargument (BoundSet BoundSet) Bool)
(declare-fun IsFallacy (BoundSet BoundSet) Bool)
(assert (not (=> (exists ((b BoundSet)) (exists ((a BoundSet)) (exists ((c BoundSet)) (and (IsRefuting b c) (HasArguments a c))))) (exists ((d BoundSet)) (exists ((a BoundSet)) (exists ((e BoundSet)) (and (IsCounterargument a d) (IsFallacy d e))))))))
(check-sat)
(get-model)